%Can remove root and simply redirect the successor of ten -> one with cost 0.

N = 10;
maxTank = 10;

% array[1..N] of var int: fd;
%fd = [one, two, three, four, five, six, seven, eight, nine, ten, root];

%array[1..N, 1..N] of int: dist;

dist = [|0, 10, 11,  6, 99, 99, 99, 99, 99, 99,
        |10,  0,  5,  8, 99, 99, 99, 99, 99, 99,
        |11,  5,  0, 99,  3,  5, 99, 99, 99, 99,
        | 6,  8, 99,  0,  2,  6,  7, 99, 99, 99,
        |99, 99,  3,  2,  0, 99, 12, 99, 99, 99,
        |99, 99,  5,  6, 99,  0, 99, 14, 99, 99,
        |99, 99, 99,  7, 12, 99,  0,  5,  3, 99,
        |99, 99, 99, 99, 99, 14,  5,  0,  1,  9,
        |99, 99, 99, 99, 99, 99,  3,  1,  0,  2,
        |0, 99, 99, 99, 99, 99, 99,  9,  2,  0|];

%array[1..N] of int: fuelPrice;
fuelPrice = [10, 10, 8, 12, 13, 9, 10, 11, 12, 8];

